NAME :  IRP
COMMENT : 
TYPE :  CVRP
DIMENSION : 	12
EDGE_WEIGHT_TYPE : 	EUC_2D
CAPACITY : 	747
NODE_COORD_SECTION
1	372	497
2	140	22
3	313	16
4	407	283
5	20	89
6	87	13
7	497	89
8	371	108
9	3	316
10	110	371
11	358	152
12	399	331
DEMAND_SECTION
1	0
2	104
3	160
4	76
5	240
6	48
7	114
8	198
9	30
10	177
11	111
12	117
DEPOT_SECTION
	1
	-1
EOF
